# Solution for model hydro
# Objective value = 0
C0(4) 0
C1(4) 0
C2(2) 0
C3(2) 0
C4(2) 0
C5(2) 0
C6(2) 0
C7(2) 0
C8(2) 0
C9(2) 0
C10(1) 0
C11(1) 0
C12(1) 0
C13(1) 0
C14(1) 0
C15(1) 0
C16(1) 0
C17(1) 0
C18(1) 0
C19(1) 0
C20(1) 0
C21(1) 0
C22(1) 0
C23(1) 0
C24(1) 0
C25(1) 0
C26(1) 0
C27(1) 0
C28(1) 0
C29(1) 0
C30(2) 0
C31(2) 0
C32(2) 0
C33(2) 0
C34(2) 0
C35(2) 0
C36(2) 0
C37(2) 0
C38(2) 0
C39(2) 0
C40(2) 0
C41(2) 0
C42(2) 0
C43(2) 0
C44(2) 0
C45(2) 0
C46(0) 0
C47(0) 0
C48(0) 0
C49(0) 0
C50(0) 0
C51(0) 0
C52(0) 0
C53(0) 0
C54(0) 0
C55(0) 0
C56(0) 0
C57(0) 0
C58(0) 0
C59(0) 0
C60(0) 0
C61(0) 0
